Geographic Exponential Decay
40 288 280 226 52 189 213 260 89 90 131 84 44 219 104 197 234 6 184 146 314 14 170 81 250 239 245 154 272 142 35 17 302 274 217 92 1 57 316 24 112
p edge 320 332
e 0 268 1.0
e 1 275 61.0
e 1 304 60.0
e 1 99 33.0
e 1 237 23.0
e 1 5 92.0
e 1 0 19.0
e 2 299 1.0
e 2 1 89.0
e 3 81 42.0
e 3 133 25.0
e 3 203 21.0
e 3 2 26.0
e 4 62 2.0
e 4 3 7.0
e 6 226 27.0
e 6 221 98.0
e 6 233 60.0
e 6 155 65.0
e 6 114 90.0
e 6 4 91.0
e 7 138 9.0
e 7 6 72.0
e 8 84 50.0
e 8 7 1.0
e 9 223 14.0
e 9 8 4.0
e 10 234 86.0
e 11 27 1.0
e 11 9 3.0
e 12 126 3.0
e 12 11 1.0
e 13 214 4.0
e 13 12 4.0
e 14 220 98.0
e 14 200 93.0
e 14 100 88.0
e 14 85 41.0
e 14 252 3.0
e 14 13 18.0
e 15 315 1.0
e 15 14 58.0
e 16 295 8.0
e 16 15 1.0
e 17 33 59.0
e 17 95 3.0
e 17 313 69.0
e 17 182 82.0
e 17 186 8.0
e 17 16 44.0
e 18 77 7.0
e 18 17 54.0
e 19 301 1.0
e 19 18 12.0
e 20 169 2.0
e 20 19 1.0
e 21 187 1.0
e 21 20 4.0
e 22 73 1.0
e 22 21 4.0
e 23 309 2.0
e 23 22 2.0
e 24 150 85.0
e 24 25 54.0
e 24 65 68.0
e 24 305 12.0
e 24 111 85.0
e 24 23 81.0
e 26 192 2.0
e 26 24 48.0
e 28 222 2.0
e 28 26 2.0
e 29 52 55.0
e 29 28 2.0
e 30 52 66.0
e 31 223 7.0
e 32 70 1.0
e 32 29 1.0
e 34 211 3.0
e 34 32 1.0
e 35 36 29.0
e 35 232 47.0
e 35 84 27.0
e 35 75 13.0
e 35 207 86.0
e 36 198 3.0
e 37 194 1.0
e 37 34 1.0
e 38 56 3.0
e 38 37 2.0
e 39 244 3.0
e 39 163 13.0
e 39 38 5.0
e 40 101 1.0
e 40 39 12.0
e 41 204 4.0
e 41 40 1.0
e 42 154 91.0
e 43 44 78.0
e 44 316 39.0
e 44 280 4.0
e 44 154 30.0
e 44 219 87.0
e 45 127 2.0
e 45 41 4.0
e 46 94 1.0
e 46 45 1.0
e 47 48 6.0
e 47 46 8.0
e 49 253 8.0
e 49 47 2.0
e 50 241 1.0
e 50 49 9.0
e 51 115 8.0
e 51 50 1.0
e 52 263 60.0
e 52 112 73.0
e 52 71 29.0
e 53 122 1.0
e 53 51 2.0
e 54 254 7.0
e 54 53 8.0
e 55 224 1.0
e 55 54 10.0
e 57 157 66.0
e 57 58 25.0
e 57 59 91.0
e 57 116 58.0
e 57 98 25.0
e 60 144 5.0
e 60 55 5.0
e 61 261 2.0
e 61 60 1.0
e 63 64 1.0
e 63 61 1.0
e 66 173 10.0
e 66 63 11.0
e 67 262 8.0
e 67 66 8.0
e 68 69 1.0
e 68 67 11.0
e 72 199 1.0
e 72 68 2.0
e 74 81 10.0
e 76 96 1.0
e 76 72 1.0
e 78 79 1.0
e 78 76 2.0
e 80 270 5.0
e 80 78 5.0
e 81 82 29.0
e 81 249 88.0
e 81 269 80.0
e 83 197 76.0
e 84 225 49.0
e 84 137 75.0
e 84 271 96.0
e 86 236 6.0
e 86 80 3.0
e 87 102 3.0
e 87 86 3.0
e 88 306 1.0
e 88 87 4.0
e 89 255 37.0
e 89 103 14.0
e 89 90 55.0
e 89 91 13.0
e 89 92 73.0
e 90 256 86.0
e 90 193 92.0
e 90 92 86.0
e 90 245 97.0
e 92 257 49.0
e 92 156 44.0
e 92 283 58.0
e 93 97 1.0
e 93 88 3.0
e 104 212 59.0
e 104 105 81.0
e 104 307 26.0
e 104 259 36.0
e 104 316 19.0
e 106 134 2.0
e 106 93 1.0
e 107 108 1.0
e 108 116 4.0
e 109 266 7.0
e 109 106 7.0
e 110 317 1.0
e 110 109 7.0
e 112 205 26.0
e 112 166 100.0
e 112 113 71.0
e 112 116 22.0
e 117 118 1.0
e 117 110 1.0
e 119 238 1.0
e 119 117 1.0
e 120 201 2.0
e 120 119 1.0
e 121 258 2.0
e 121 120 1.0
e 123 183 2.0
e 123 121 2.0
e 124 188 3.0
e 124 123 5.0
e 125 206 3.0
e 125 124 1.0
e 128 129 2.0
e 128 125 3.0
e 130 131 93.0
e 131 259 57.0
e 131 132 21.0
e 131 135 19.0
e 131 136 49.0
e 136 160 1.0
e 139 140 5.0
e 139 128 1.0
e 141 142 22.0
e 142 143 4.0
e 142 276 98.0
e 142 145 96.0
e 142 208 36.0
e 143 267 16.0
e 145 294 27.0
e 145 146 3.0
e 146 184 67.0
e 146 165 32.0
e 146 147 73.0
e 146 284 67.0
e 148 149 1.0
e 148 139 3.0
e 151 171 4.0
e 151 148 1.0
e 152 161 2.0
e 152 151 2.0
e 153 189 73.0
e 154 215 58.0
e 154 178 37.0
e 154 158 48.0
e 159 184 86.0
e 162 164 23.0
e 162 152 2.0
e 164 167 10.0
e 168 308 2.0
e 168 162 6.0
e 170 235 28.0
e 170 172 12.0
e 170 302 92.0
e 170 226 85.0
e 170 174 70.0
e 175 196 1.0
e 175 168 1.0
e 176 292 1.0
e 176 175 1.0
e 177 264 7.0
e 177 176 7.0
e 179 230 4.0
e 179 177 4.0
e 180 285 2.0
e 180 179 1.0
e 181 184 71.0
e 184 217 75.0
e 184 185 64.0
e 185 265 9.0
e 189 280 71.0
e 189 190 70.0
e 189 191 60.0
e 189 195 23.0
e 195 260 27.0
e 197 202 46.0
e 197 209 16.0
e 197 272 49.0
e 197 210 88.0
e 213 310 8.0
e 213 216 52.0
e 213 282 94.0
e 213 311 78.0
e 213 217 18.0
e 217 218 10.0
e 217 219 95.0
e 217 226 48.0
e 219 278 77.0
e 219 226 64.0
e 219 239 52.0
e 226 272 9.0
e 227 228 5.0
e 227 180 4.0
e 229 231 6.0
e 229 227 6.0
e 234 239 93.0
e 234 272 7.0
e 234 314 3.0
e 234 240 44.0
e 239 242 67.0
e 239 243 45.0
e 239 245 45.0
e 242 245 67.0
e 242 303 35.0
e 245 246 85.0
e 245 247 43.0
e 248 250 62.0
e 248 251 17.0
e 250 260 11.0
e 250 272 84.0
e 250 273 15.0
e 250 274 11.0
e 260 272 66.0
e 260 274 79.0
e 260 277 80.0
e 274 278 48.0
e 274 279 12.0
e 274 280 20.0
e 280 281 70.0
e 280 286 73.0
e 287 288 16.0
e 287 229 3.0
e 288 289 9.0
e 288 290 99.0
e 288 291 91.0
e 288 293 26.0
e 296 297 6.0
e 296 287 2.0
e 298 300 1.0
e 298 296 8.0
e 302 312 40.0
e 302 314 49.0
e 302 316 68.0
e 302 318 33.0
e 314 316 71.0
e 314 319 58.0
e 316 319 63.0
